# Solution for model iteration_9
# Objective value = 1.5693310486236662e+01
vars[0] 0
vars[1] 0.001
vars[2] 0.001
vars[3] 30.001
vars[4] 3.0002000000000002e+01
vars[5] 40.002
vars[6] 3.7834001598399077e+01
vars[7] 7.5694310486236660e+01
vars[8] 0
vars[9] 1.5693310486236662e+01
lambda[0] 0
lambda[1] 0
lambda[2] 0
lambda[3] 0
lambda[4] 0
lambda[5] 0
lambda[6] 0
lambda[7] 8.0421316218212435e-01
lambda[8] 1.9578683781787565e-01
